G   52   44    1    0.004     # Parameters to Generate KPOINTS (Don't Edit This Line)
    1146
Reciprocal lattice
    0.000000000000    0.000000000000    0.000000000000       1
    0.019230769231    0.000000000000    0.000000000000       2
    0.038461538462    0.000000000000    0.000000000000       2
    0.057692307692    0.000000000000    0.000000000000       2
    0.076923076923    0.000000000000    0.000000000000       2
    0.096153846154    0.000000000000    0.000000000000       2
    0.115384615385    0.000000000000    0.000000000000       2
    0.134615384615    0.000000000000    0.000000000000       2
    0.153846153846    0.000000000000    0.000000000000       2
    0.173076923077    0.000000000000    0.000000000000       2
    0.192307692308    0.000000000000    0.000000000000       2
    0.211538461538    0.000000000000    0.000000000000       2
    0.230769230769    0.000000000000    0.000000000000       2
    0.250000000000    0.000000000000    0.000000000000       2
    0.269230769231    0.000000000000    0.000000000000       2
    0.288461538462    0.000000000000    0.000000000000       2
    0.307692307692    0.000000000000    0.000000000000       2
    0.326923076923    0.000000000000    0.000000000000       2
    0.346153846154    0.000000000000    0.000000000000       2
    0.365384615385    0.000000000000    0.000000000000       2
    0.384615384615    0.000000000000    0.000000000000       2
    0.403846153846    0.000000000000    0.000000000000       2
    0.423076923077    0.000000000000    0.000000000000       2
    0.442307692308    0.000000000000    0.000000000000       2
    0.461538461538    0.000000000000    0.000000000000       2
    0.480769230769    0.000000000000    0.000000000000       2
    0.500000000000    0.000000000000    0.000000000000       1
    0.000000000000    0.022727272727    0.000000000000       2
    0.019230769231    0.022727272727    0.000000000000       2
    0.038461538462    0.022727272727    0.000000000000       2
    0.057692307692    0.022727272727    0.000000000000       2
    0.076923076923    0.022727272727    0.000000000000       2
    0.096153846154    0.022727272727    0.000000000000       2
    0.115384615385    0.022727272727    0.000000000000       2
    0.134615384615    0.022727272727    0.000000000000       2
    0.153846153846    0.022727272727    0.000000000000       2
    0.173076923077    0.022727272727    0.000000000000       2
    0.192307692308    0.022727272727    0.000000000000       2
    0.211538461538    0.022727272727    0.000000000000       2
    0.230769230769    0.022727272727    0.000000000000       2
    0.250000000000    0.022727272727    0.000000000000       2
    0.269230769231    0.022727272727    0.000000000000       2
    0.288461538462    0.022727272727    0.000000000000       2
    0.307692307692    0.022727272727    0.000000000000       2
    0.326923076923    0.022727272727    0.000000000000       2
    0.346153846154    0.022727272727    0.000000000000       2
    0.365384615385    0.022727272727    0.000000000000       2
    0.384615384615    0.022727272727    0.000000000000       2
    0.403846153846    0.022727272727    0.000000000000       2
    0.423076923077    0.022727272727    0.000000000000       2
    0.442307692308    0.022727272727    0.000000000000       2
    0.461538461538    0.022727272727    0.000000000000       2
    0.480769230769    0.022727272727    0.000000000000       2
    0.500000000000    0.022727272727    0.000000000000       2
   -0.480769230769    0.022727272727    0.000000000000       2
   -0.461538461538    0.022727272727    0.000000000000       2
   -0.442307692308    0.022727272727    0.000000000000       2
   -0.423076923077    0.022727272727    0.000000000000       2
   -0.403846153846    0.022727272727    0.000000000000       2
   -0.384615384615    0.022727272727    0.000000000000       2
   -0.365384615385    0.022727272727    0.000000000000       2
   -0.346153846154    0.022727272727    0.000000000000       2
   -0.326923076923    0.022727272727    0.000000000000       2
   -0.307692307692    0.022727272727    0.000000000000       2
   -0.288461538462    0.022727272727    0.000000000000       2
   -0.269230769231    0.022727272727    0.000000000000       2
   -0.250000000000    0.022727272727    0.000000000000       2
   -0.230769230769    0.022727272727    0.000000000000       2
   -0.211538461538    0.022727272727    0.000000000000       2
   -0.192307692308    0.022727272727    0.000000000000       2
   -0.173076923077    0.022727272727    0.000000000000       2
   -0.153846153846    0.022727272727    0.000000000000       2
   -0.134615384615    0.022727272727    0.000000000000       2
   -0.115384615385    0.022727272727    0.000000000000       2
   -0.096153846154    0.022727272727    0.000000000000       2
   -0.076923076923    0.022727272727    0.000000000000       2
   -0.057692307692    0.022727272727    0.000000000000       2
   -0.038461538462    0.022727272727    0.000000000000       2
   -0.019230769231    0.022727272727    0.000000000000       2
    0.000000000000    0.045454545455    0.000000000000       2
    0.019230769231    0.045454545455    0.000000000000       2
    0.038461538462    0.045454545455    0.000000000000       2
    0.057692307692    0.045454545455    0.000000000000       2
    0.076923076923    0.045454545455    0.000000000000       2
    0.096153846154    0.045454545455    0.000000000000       2
    0.115384615385    0.045454545455    0.000000000000       2
    0.134615384615    0.045454545455    0.000000000000       2
    0.153846153846    0.045454545455    0.000000000000       2
    0.173076923077    0.045454545455    0.000000000000       2
    0.192307692308    0.045454545455    0.000000000000       2
    0.211538461538    0.045454545455    0.000000000000       2
    0.230769230769    0.045454545455    0.000000000000       2
    0.250000000000    0.045454545455    0.000000000000       2
    0.269230769231    0.045454545455    0.000000000000       2
    0.288461538462    0.045454545455    0.000000000000       2
    0.307692307692    0.045454545455    0.000000000000       2
    0.326923076923    0.045454545455    0.000000000000       2
    0.346153846154    0.045454545455    0.000000000000       2
    0.365384615385    0.045454545455    0.000000000000       2
    0.384615384615    0.045454545455    0.000000000000       2
    0.403846153846    0.045454545455    0.000000000000       2
    0.423076923077    0.045454545455    0.000000000000       2
    0.442307692308    0.045454545455    0.000000000000       2
    0.461538461538    0.045454545455    0.000000000000       2
    0.480769230769    0.045454545455    0.000000000000       2
    0.500000000000    0.045454545455    0.000000000000       2
   -0.480769230769    0.045454545455    0.000000000000       2
   -0.461538461538    0.045454545455    0.000000000000       2
   -0.442307692308    0.045454545455    0.000000000000       2
   -0.423076923077    0.045454545455    0.000000000000       2
   -0.403846153846    0.045454545455    0.000000000000       2
   -0.384615384615    0.045454545455    0.000000000000       2
   -0.365384615385    0.045454545455    0.000000000000       2
   -0.346153846154    0.045454545455    0.000000000000       2
   -0.326923076923    0.045454545455    0.000000000000       2
   -0.307692307692    0.045454545455    0.000000000000       2
   -0.288461538462    0.045454545455    0.000000000000       2
   -0.269230769231    0.045454545455    0.000000000000       2
   -0.250000000000    0.045454545455    0.000000000000       2
   -0.230769230769    0.045454545455    0.000000000000       2
   -0.211538461538    0.045454545455    0.000000000000       2
   -0.192307692308    0.045454545455    0.000000000000       2
   -0.173076923077    0.045454545455    0.000000000000       2
   -0.153846153846    0.045454545455    0.000000000000       2
   -0.134615384615    0.045454545455    0.000000000000       2
   -0.115384615385    0.045454545455    0.000000000000       2
   -0.096153846154    0.045454545455    0.000000000000       2
   -0.076923076923    0.045454545455    0.000000000000       2
   -0.057692307692    0.045454545455    0.000000000000       2
   -0.038461538462    0.045454545455    0.000000000000       2
   -0.019230769231    0.045454545455    0.000000000000       2
    0.000000000000    0.068181818182    0.000000000000       2
    0.019230769231    0.068181818182    0.000000000000       2
    0.038461538462    0.068181818182    0.000000000000       2
    0.057692307692    0.068181818182    0.000000000000       2
    0.076923076923    0.068181818182    0.000000000000       2
    0.096153846154    0.068181818182    0.000000000000       2
    0.115384615385    0.068181818182    0.000000000000       2
    0.134615384615    0.068181818182    0.000000000000       2
    0.153846153846    0.068181818182    0.000000000000       2
    0.173076923077    0.068181818182    0.000000000000       2
    0.192307692308    0.068181818182    0.000000000000       2
    0.211538461538    0.068181818182    0.000000000000       2
    0.230769230769    0.068181818182    0.000000000000       2
    0.250000000000    0.068181818182    0.000000000000       2
    0.269230769231    0.068181818182    0.000000000000       2
    0.288461538462    0.068181818182    0.000000000000       2
    0.307692307692    0.068181818182    0.000000000000       2
    0.326923076923    0.068181818182    0.000000000000       2
    0.346153846154    0.068181818182    0.000000000000       2
    0.365384615385    0.068181818182    0.000000000000       2
    0.384615384615    0.068181818182    0.000000000000       2
    0.403846153846    0.068181818182    0.000000000000       2
    0.423076923077    0.068181818182    0.000000000000       2
    0.442307692308    0.068181818182    0.000000000000       2
    0.461538461538    0.068181818182    0.000000000000       2
    0.480769230769    0.068181818182    0.000000000000       2
    0.500000000000    0.068181818182    0.000000000000       2
   -0.480769230769    0.068181818182    0.000000000000       2
   -0.461538461538    0.068181818182    0.000000000000       2
   -0.442307692308    0.068181818182    0.000000000000       2
   -0.423076923077    0.068181818182    0.000000000000       2
   -0.403846153846    0.068181818182    0.000000000000       2
   -0.384615384615    0.068181818182    0.000000000000       2
   -0.365384615385    0.068181818182    0.000000000000       2
   -0.346153846154    0.068181818182    0.000000000000       2
   -0.326923076923    0.068181818182    0.000000000000       2
   -0.307692307692    0.068181818182    0.000000000000       2
   -0.288461538462    0.068181818182    0.000000000000       2
   -0.269230769231    0.068181818182    0.000000000000       2
   -0.250000000000    0.068181818182    0.000000000000       2
   -0.230769230769    0.068181818182    0.000000000000       2
   -0.211538461538    0.068181818182    0.000000000000       2
   -0.192307692308    0.068181818182    0.000000000000       2
   -0.173076923077    0.068181818182    0.000000000000       2
   -0.153846153846    0.068181818182    0.000000000000       2
   -0.134615384615    0.068181818182    0.000000000000       2
   -0.115384615385    0.068181818182    0.000000000000       2
   -0.096153846154    0.068181818182    0.000000000000       2
   -0.076923076923    0.068181818182    0.000000000000       2
   -0.057692307692    0.068181818182    0.000000000000       2
   -0.038461538462    0.068181818182    0.000000000000       2
   -0.019230769231    0.068181818182    0.000000000000       2
    0.000000000000    0.090909090909    0.000000000000       2
    0.019230769231    0.090909090909    0.000000000000       2
    0.038461538462    0.090909090909    0.000000000000       2
    0.057692307692    0.090909090909    0.000000000000       2
    0.076923076923    0.090909090909    0.000000000000       2
    0.096153846154    0.090909090909    0.000000000000       2
    0.115384615385    0.090909090909    0.000000000000       2
    0.134615384615    0.090909090909    0.000000000000       2
    0.153846153846    0.090909090909    0.000000000000       2
    0.173076923077    0.090909090909    0.000000000000       2
    0.192307692308    0.090909090909    0.000000000000       2
    0.211538461538    0.090909090909    0.000000000000       2
    0.230769230769    0.090909090909    0.000000000000       2
    0.250000000000    0.090909090909    0.000000000000       2
    0.269230769231    0.090909090909    0.000000000000       2
    0.288461538462    0.090909090909    0.000000000000       2
    0.307692307692    0.090909090909    0.000000000000       2
    0.326923076923    0.090909090909    0.000000000000       2
    0.346153846154    0.090909090909    0.000000000000       2
    0.365384615385    0.090909090909    0.000000000000       2
    0.384615384615    0.090909090909    0.000000000000       2
    0.403846153846    0.090909090909    0.000000000000       2
    0.423076923077    0.090909090909    0.000000000000       2
    0.442307692308    0.090909090909    0.000000000000       2
    0.461538461538    0.090909090909    0.000000000000       2
    0.480769230769    0.090909090909    0.000000000000       2
    0.500000000000    0.090909090909    0.000000000000       2
   -0.480769230769    0.090909090909    0.000000000000       2
   -0.461538461538    0.090909090909    0.000000000000       2
   -0.442307692308    0.090909090909    0.000000000000       2
   -0.423076923077    0.090909090909    0.000000000000       2
   -0.403846153846    0.090909090909    0.000000000000       2
   -0.384615384615    0.090909090909    0.000000000000       2
   -0.365384615385    0.090909090909    0.000000000000       2
   -0.346153846154    0.090909090909    0.000000000000       2
   -0.326923076923    0.090909090909    0.000000000000       2
   -0.307692307692    0.090909090909    0.000000000000       2
   -0.288461538462    0.090909090909    0.000000000000       2
   -0.269230769231    0.090909090909    0.000000000000       2
   -0.250000000000    0.090909090909    0.000000000000       2
   -0.230769230769    0.090909090909    0.000000000000       2
   -0.211538461538    0.090909090909    0.000000000000       2
   -0.192307692308    0.090909090909    0.000000000000       2
   -0.173076923077    0.090909090909    0.000000000000       2
   -0.153846153846    0.090909090909    0.000000000000       2
   -0.134615384615    0.090909090909    0.000000000000       2
   -0.115384615385    0.090909090909    0.000000000000       2
   -0.096153846154    0.090909090909    0.000000000000       2
   -0.076923076923    0.090909090909    0.000000000000       2
   -0.057692307692    0.090909090909    0.000000000000       2
   -0.038461538462    0.090909090909    0.000000000000       2
   -0.019230769231    0.090909090909    0.000000000000       2
    0.000000000000    0.113636363636    0.000000000000       2
    0.019230769231    0.113636363636    0.000000000000       2
    0.038461538462    0.113636363636    0.000000000000       2
    0.057692307692    0.113636363636    0.000000000000       2
    0.076923076923    0.113636363636    0.000000000000       2
    0.096153846154    0.113636363636    0.000000000000       2
    0.115384615385    0.113636363636    0.000000000000       2
    0.134615384615    0.113636363636    0.000000000000       2
    0.153846153846    0.113636363636    0.000000000000       2
    0.173076923077    0.113636363636    0.000000000000       2
    0.192307692308    0.113636363636    0.000000000000       2
    0.211538461538    0.113636363636    0.000000000000       2
    0.230769230769    0.113636363636    0.000000000000       2
    0.250000000000    0.113636363636    0.000000000000       2
    0.269230769231    0.113636363636    0.000000000000       2
    0.288461538462    0.113636363636    0.000000000000       2
    0.307692307692    0.113636363636    0.000000000000       2
    0.326923076923    0.113636363636    0.000000000000       2
    0.346153846154    0.113636363636    0.000000000000       2
    0.365384615385    0.113636363636    0.000000000000       2
    0.384615384615    0.113636363636    0.000000000000       2
    0.403846153846    0.113636363636    0.000000000000       2
    0.423076923077    0.113636363636    0.000000000000       2
    0.442307692308    0.113636363636    0.000000000000       2
    0.461538461538    0.113636363636    0.000000000000       2
    0.480769230769    0.113636363636    0.000000000000       2
    0.500000000000    0.113636363636    0.000000000000       2
   -0.480769230769    0.113636363636    0.000000000000       2
   -0.461538461538    0.113636363636    0.000000000000       2
   -0.442307692308    0.113636363636    0.000000000000       2
   -0.423076923077    0.113636363636    0.000000000000       2
   -0.403846153846    0.113636363636    0.000000000000       2
   -0.384615384615    0.113636363636    0.000000000000       2
   -0.365384615385    0.113636363636    0.000000000000       2
   -0.346153846154    0.113636363636    0.000000000000       2
   -0.326923076923    0.113636363636    0.000000000000       2
   -0.307692307692    0.113636363636    0.000000000000       2
   -0.288461538462    0.113636363636    0.000000000000       2
   -0.269230769231    0.113636363636    0.000000000000       2
   -0.250000000000    0.113636363636    0.000000000000       2
   -0.230769230769    0.113636363636    0.000000000000       2
   -0.211538461538    0.113636363636    0.000000000000       2
   -0.192307692308    0.113636363636    0.000000000000       2
   -0.173076923077    0.113636363636    0.000000000000       2
   -0.153846153846    0.113636363636    0.000000000000       2
   -0.134615384615    0.113636363636    0.000000000000       2
   -0.115384615385    0.113636363636    0.000000000000       2
   -0.096153846154    0.113636363636    0.000000000000       2
   -0.076923076923    0.113636363636    0.000000000000       2
   -0.057692307692    0.113636363636    0.000000000000       2
   -0.038461538462    0.113636363636    0.000000000000       2
   -0.019230769231    0.113636363636    0.000000000000       2
    0.000000000000    0.136363636364    0.000000000000       2
    0.019230769231    0.136363636364    0.000000000000       2
    0.038461538462    0.136363636364    0.000000000000       2
    0.057692307692    0.136363636364    0.000000000000       2
    0.076923076923    0.136363636364    0.000000000000       2
    0.096153846154    0.136363636364    0.000000000000       2
    0.115384615385    0.136363636364    0.000000000000       2
    0.134615384615    0.136363636364    0.000000000000       2
    0.153846153846    0.136363636364    0.000000000000       2
    0.173076923077    0.136363636364    0.000000000000       2
    0.192307692308    0.136363636364    0.000000000000       2
    0.211538461538    0.136363636364    0.000000000000       2
    0.230769230769    0.136363636364    0.000000000000       2
    0.250000000000    0.136363636364    0.000000000000       2
    0.269230769231    0.136363636364    0.000000000000       2
    0.288461538462    0.136363636364    0.000000000000       2
    0.307692307692    0.136363636364    0.000000000000       2
    0.326923076923    0.136363636364    0.000000000000       2
    0.346153846154    0.136363636364    0.000000000000       2
    0.365384615385    0.136363636364    0.000000000000       2
    0.384615384615    0.136363636364    0.000000000000       2
    0.403846153846    0.136363636364    0.000000000000       2
    0.423076923077    0.136363636364    0.000000000000       2
    0.442307692308    0.136363636364    0.000000000000       2
    0.461538461538    0.136363636364    0.000000000000       2
    0.480769230769    0.136363636364    0.000000000000       2
    0.500000000000    0.136363636364    0.000000000000       2
   -0.480769230769    0.136363636364    0.000000000000       2
   -0.461538461538    0.136363636364    0.000000000000       2
   -0.442307692308    0.136363636364    0.000000000000       2
   -0.423076923077    0.136363636364    0.000000000000       2
   -0.403846153846    0.136363636364    0.000000000000       2
   -0.384615384615    0.136363636364    0.000000000000       2
   -0.365384615385    0.136363636364    0.000000000000       2
   -0.346153846154    0.136363636364    0.000000000000       2
   -0.326923076923    0.136363636364    0.000000000000       2
   -0.307692307692    0.136363636364    0.000000000000       2
   -0.288461538462    0.136363636364    0.000000000000       2
   -0.269230769231    0.136363636364    0.000000000000       2
   -0.250000000000    0.136363636364    0.000000000000       2
   -0.230769230769    0.136363636364    0.000000000000       2
   -0.211538461538    0.136363636364    0.000000000000       2
   -0.192307692308    0.136363636364    0.000000000000       2
   -0.173076923077    0.136363636364    0.000000000000       2
   -0.153846153846    0.136363636364    0.000000000000       2
   -0.134615384615    0.136363636364    0.000000000000       2
   -0.115384615385    0.136363636364    0.000000000000       2
   -0.096153846154    0.136363636364    0.000000000000       2
   -0.076923076923    0.136363636364    0.000000000000       2
   -0.057692307692    0.136363636364    0.000000000000       2
   -0.038461538462    0.136363636364    0.000000000000       2
   -0.019230769231    0.136363636364    0.000000000000       2
    0.000000000000    0.159090909091    0.000000000000       2
    0.019230769231    0.159090909091    0.000000000000       2
    0.038461538462    0.159090909091    0.000000000000       2
    0.057692307692    0.159090909091    0.000000000000       2
    0.076923076923    0.159090909091    0.000000000000       2
    0.096153846154    0.159090909091    0.000000000000       2
    0.115384615385    0.159090909091    0.000000000000       2
    0.134615384615    0.159090909091    0.000000000000       2
    0.153846153846    0.159090909091    0.000000000000       2
    0.173076923077    0.159090909091    0.000000000000       2
    0.192307692308    0.159090909091    0.000000000000       2
    0.211538461538    0.159090909091    0.000000000000       2
    0.230769230769    0.159090909091    0.000000000000       2
    0.250000000000    0.159090909091    0.000000000000       2
    0.269230769231    0.159090909091    0.000000000000       2
    0.288461538462    0.159090909091    0.000000000000       2
    0.307692307692    0.159090909091    0.000000000000       2
    0.326923076923    0.159090909091    0.000000000000       2
    0.346153846154    0.159090909091    0.000000000000       2
    0.365384615385    0.159090909091    0.000000000000       2
    0.384615384615    0.159090909091    0.000000000000       2
    0.403846153846    0.159090909091    0.000000000000       2
    0.423076923077    0.159090909091    0.000000000000       2
    0.442307692308    0.159090909091    0.000000000000       2
    0.461538461538    0.159090909091    0.000000000000       2
    0.480769230769    0.159090909091    0.000000000000       2
    0.500000000000    0.159090909091    0.000000000000       2
   -0.480769230769    0.159090909091    0.000000000000       2
   -0.461538461538    0.159090909091    0.000000000000       2
   -0.442307692308    0.159090909091    0.000000000000       2
   -0.423076923077    0.159090909091    0.000000000000       2
   -0.403846153846    0.159090909091    0.000000000000       2
   -0.384615384615    0.159090909091    0.000000000000       2
   -0.365384615385    0.159090909091    0.000000000000       2
   -0.346153846154    0.159090909091    0.000000000000       2
   -0.326923076923    0.159090909091    0.000000000000       2
   -0.307692307692    0.159090909091    0.000000000000       2
   -0.288461538462    0.159090909091    0.000000000000       2
   -0.269230769231    0.159090909091    0.000000000000       2
   -0.250000000000    0.159090909091    0.000000000000       2
   -0.230769230769    0.159090909091    0.000000000000       2
   -0.211538461538    0.159090909091    0.000000000000       2
   -0.192307692308    0.159090909091    0.000000000000       2
   -0.173076923077    0.159090909091    0.000000000000       2
   -0.153846153846    0.159090909091    0.000000000000       2
   -0.134615384615    0.159090909091    0.000000000000       2
   -0.115384615385    0.159090909091    0.000000000000       2
   -0.096153846154    0.159090909091    0.000000000000       2
   -0.076923076923    0.159090909091    0.000000000000       2
   -0.057692307692    0.159090909091    0.000000000000       2
   -0.038461538462    0.159090909091    0.000000000000       2
   -0.019230769231    0.159090909091    0.000000000000       2
    0.000000000000    0.181818181818    0.000000000000       2
    0.019230769231    0.181818181818    0.000000000000       2
    0.038461538462    0.181818181818    0.000000000000       2
    0.057692307692    0.181818181818    0.000000000000       2
    0.076923076923    0.181818181818    0.000000000000       2
    0.096153846154    0.181818181818    0.000000000000       2
    0.115384615385    0.181818181818    0.000000000000       2
    0.134615384615    0.181818181818    0.000000000000       2
    0.153846153846    0.181818181818    0.000000000000       2
    0.173076923077    0.181818181818    0.000000000000       2
    0.192307692308    0.181818181818    0.000000000000       2
    0.211538461538    0.181818181818    0.000000000000       2
    0.230769230769    0.181818181818    0.000000000000       2
    0.250000000000    0.181818181818    0.000000000000       2
    0.269230769231    0.181818181818    0.000000000000       2
    0.288461538462    0.181818181818    0.000000000000       2
    0.307692307692    0.181818181818    0.000000000000       2
    0.326923076923    0.181818181818    0.000000000000       2
    0.346153846154    0.181818181818    0.000000000000       2
    0.365384615385    0.181818181818    0.000000000000       2
    0.384615384615    0.181818181818    0.000000000000       2
    0.403846153846    0.181818181818    0.000000000000       2
    0.423076923077    0.181818181818    0.000000000000       2
    0.442307692308    0.181818181818    0.000000000000       2
    0.461538461538    0.181818181818    0.000000000000       2
    0.480769230769    0.181818181818    0.000000000000       2
    0.500000000000    0.181818181818    0.000000000000       2
   -0.480769230769    0.181818181818    0.000000000000       2
   -0.461538461538    0.181818181818    0.000000000000       2
   -0.442307692308    0.181818181818    0.000000000000       2
   -0.423076923077    0.181818181818    0.000000000000       2
   -0.403846153846    0.181818181818    0.000000000000       2
   -0.384615384615    0.181818181818    0.000000000000       2
   -0.365384615385    0.181818181818    0.000000000000       2
   -0.346153846154    0.181818181818    0.000000000000       2
   -0.326923076923    0.181818181818    0.000000000000       2
   -0.307692307692    0.181818181818    0.000000000000       2
   -0.288461538462    0.181818181818    0.000000000000       2
   -0.269230769231    0.181818181818    0.000000000000       2
   -0.250000000000    0.181818181818    0.000000000000       2
   -0.230769230769    0.181818181818    0.000000000000       2
   -0.211538461538    0.181818181818    0.000000000000       2
   -0.192307692308    0.181818181818    0.000000000000       2
   -0.173076923077    0.181818181818    0.000000000000       2
   -0.153846153846    0.181818181818    0.000000000000       2
   -0.134615384615    0.181818181818    0.000000000000       2
   -0.115384615385    0.181818181818    0.000000000000       2
   -0.096153846154    0.181818181818    0.000000000000       2
   -0.076923076923    0.181818181818    0.000000000000       2
   -0.057692307692    0.181818181818    0.000000000000       2
   -0.038461538462    0.181818181818    0.000000000000       2
   -0.019230769231    0.181818181818    0.000000000000       2
    0.000000000000    0.204545454545    0.000000000000       2
    0.019230769231    0.204545454545    0.000000000000       2
    0.038461538462    0.204545454545    0.000000000000       2
    0.057692307692    0.204545454545    0.000000000000       2
    0.076923076923    0.204545454545    0.000000000000       2
    0.096153846154    0.204545454545    0.000000000000       2
    0.115384615385    0.204545454545    0.000000000000       2
    0.134615384615    0.204545454545    0.000000000000       2
    0.153846153846    0.204545454545    0.000000000000       2
    0.173076923077    0.204545454545    0.000000000000       2
    0.192307692308    0.204545454545    0.000000000000       2
    0.211538461538    0.204545454545    0.000000000000       2
    0.230769230769    0.204545454545    0.000000000000       2
    0.250000000000    0.204545454545    0.000000000000       2
    0.269230769231    0.204545454545    0.000000000000       2
    0.288461538462    0.204545454545    0.000000000000       2
    0.307692307692    0.204545454545    0.000000000000       2
    0.326923076923    0.204545454545    0.000000000000       2
    0.346153846154    0.204545454545    0.000000000000       2
    0.365384615385    0.204545454545    0.000000000000       2
    0.384615384615    0.204545454545    0.000000000000       2
    0.403846153846    0.204545454545    0.000000000000       2
    0.423076923077    0.204545454545    0.000000000000       2
    0.442307692308    0.204545454545    0.000000000000       2
    0.461538461538    0.204545454545    0.000000000000       2
    0.480769230769    0.204545454545    0.000000000000       2
    0.500000000000    0.204545454545    0.000000000000       2
   -0.480769230769    0.204545454545    0.000000000000       2
   -0.461538461538    0.204545454545    0.000000000000       2
   -0.442307692308    0.204545454545    0.000000000000       2
   -0.423076923077    0.204545454545    0.000000000000       2